(set-logic HORN)
(set-info :source |
  Benchmark: test_safe_2019/mochi/bcopy4.ml
  Generated by MoCHi
|)
(set-info :status unknown)
(declare-fun |fail_14[18:0]| ( Int) Bool)
(declare-fun |bcopy_aux[12:3]| ( Int  Int) Bool)
(assert (not (exists ((x0 Int)) (|fail_14[18:0]| x0))))
(assert (forall ((x0 Int)(x1 Int)(x2 Int)) (=> (and (|bcopy_aux[12:3]| x2 x1) (and (>= 0 (+ 1 x1)) (<= (+ 1 x1) x2))) (|fail_14[18:0]| x0))))
(assert (forall ((x1 Int)(x0 Int)) (=> (= x0 0) (|bcopy_aux[12:3]| x1 x0))))
(check-sat)
(get-model)
(exit)
